NAME : P = NP
TYPE : TSP
DIMENSION : 43
EDGE_WEIGHT_TYPE : EUC_2D
NODE_COORD_SECTION
0 449 459
1 96 69
2 233 840
3 60 143
4 250 15
5 17 391
6 11 217
7 265 452
8 59 31
9 149 552
10 58 413
11 330 362
12 21 958
13 346 262
14 220 12
15 48 6
16 258 293
17 158 68
18 187 520
19 94 1
20 393 384
21 58 58
22 179 482
23 84 672
24 89 74
25 200 98
26 344 142
27 226 186
28 232 24
29 417 87
30 721 370
31 50 324
32 136 110
33 201 236
34 659 117
35 48 30
36 83 53
37 98 84
38 13 209
39 375 35
40 305 104
41 426 10
42 75 565